50
84
620
864
532
54
220
510
612
640
300
517
324
225
817
160
98
429
280
810
700
520
410
341
384
629
78
176
594
50
720
116
828
720
325
504
372
833
266
270
450
374
663
533
180
282
740
312
215
128
800
780
448
92
385
728
546
31
384
518
108
616
165
510
720
406
47
540
25
430
480
245
532
364
45
170
364
492
90
576
629
312
44
99
600
273
29
138
525
200
126
434
784
152
297
616
68
612
680
450
893
72
312
215
192
450
390
84
315
280
988
451
310
720
703
243
88
429
450
480
203
184
396
375
798
64
539
570
112
855
102
867
779
540
611
518
260
559
627
350
546
308
598
140
936
336
217
528
760
432
396
612
765
520
522
47
432
375
86
192
392
624
448
135
630
468
328
30
192
703
156
264
33
1000
480
406
736
280
175
294
155
980
608
189
225
238
969
533
300
423
72
156
774
160
550
312
168
598
525
676
820
